99
200
140	2
139	8
138	3
137	5
136	8
135	3
134	2
133	2
132	7
131	6
130	4
129	6
128	4
127	5
126	5
125	4
124	4
123	4
122	2
121	4
120	2
119	4
118	2
117	3
116	4
115	1
114	5
113	5
112	3
111	2
110	1
109	2
108	3
107	5
106	3
105	2
104	3
103	3
102	6
101	4
100	6
99	5
98	5
97	3
96	5
95	4
94	2
93	10
92	4
91	13
90	1
89	5
88	5
87	5
86	7
85	4
84	4
83	5
82	4
81	9
79	2
78	7
77	5
76	5
75	1
73	4
72	5
71	6
70	2
69	4
68	3
67	4
66	4
65	3
64	2
63	3
62	3
61	4
60	5
59	2
58	4
57	5
56	5
55	3
54	2
53	4
52	4
51	3
50	3
49	3
48	6
47	2
46	4
45	3
44	5
43	5
42	2
41	3
40	3
